\ This file has been generated by DOcplex
\ ENCODING=ISO-8859-1
\Problem name: DeterministicMilk

Minimize
 obj: 62 B_0_0_0 + 62 B_0_0_1 + 62 B_0_0_2 + 62 B_0_0_3 + 62 B_0_0_4
      + 121.500000000000 B_0_1_0 + 121.500000000000 B_0_1_1
      + 121.500000000000 B_0_1_2 + 121.500000000000 B_0_1_3
      + 121.500000000000 B_0_1_4 + 113.100000000000 B_0_2_0
      + 113.100000000000 B_0_2_1 + 113.100000000000 B_0_2_2
      + 113.100000000000 B_0_2_3 + 113.100000000000 B_0_2_4
      + 148.500000000000 B_0_3_0 + 148.500000000000 B_0_3_1
      + 148.500000000000 B_0_3_2 + 148.500000000000 B_0_3_3
      + 148.500000000000 B_0_3_4 + 118.400000000000 B_0_4_0
      + 118.400000000000 B_0_4_1 + 118.400000000000 B_0_4_2
      + 118.400000000000 B_0_4_3 + 118.400000000000 B_0_4_4 + 62 B_1_0_0
      + 62 B_1_0_1 + 62 B_1_0_2 + 62 B_1_0_3 + 62 B_1_0_4
      + 121.500000000000 B_1_1_0 + 121.500000000000 B_1_1_1
      + 121.500000000000 B_1_1_2 + 121.500000000000 B_1_1_3
      + 121.500000000000 B_1_1_4 + 113.100000000000 B_1_2_0
      + 113.100000000000 B_1_2_1 + 113.100000000000 B_1_2_2
      + 113.100000000000 B_1_2_3 + 113.100000000000 B_1_2_4
      + 148.500000000000 B_1_3_0 + 148.500000000000 B_1_3_1
      + 148.500000000000 B_1_3_2 + 148.500000000000 B_1_3_3
      + 148.500000000000 B_1_3_4 + 118.400000000000 B_1_4_0
      + 118.400000000000 B_1_4_1 + 118.400000000000 B_1_4_2
      + 118.400000000000 B_1_4_3 + 118.400000000000 B_1_4_4 + 62 B_2_0_0
      + 62 B_2_0_1 + 62 B_2_0_2 + 62 B_2_0_3 + 62 B_2_0_4
      + 121.500000000000 B_2_1_0 + 121.500000000000 B_2_1_1
      + 121.500000000000 B_2_1_2 + 121.500000000000 B_2_1_3
      + 121.500000000000 B_2_1_4 + 113.100000000000 B_2_2_0
      + 113.100000000000 B_2_2_1 + 113.100000000000 B_2_2_2
      + 113.100000000000 B_2_2_3 + 113.100000000000 B_2_2_4
      + 148.500000000000 B_2_3_0 + 148.500000000000 B_2_3_1
      + 148.500000000000 B_2_3_2 + 148.500000000000 B_2_3_3
      + 148.500000000000 B_2_3_4 + 118.400000000000 B_2_4_0
      + 118.400000000000 B_2_4_1 + 118.400000000000 B_2_4_2
      + 118.400000000000 B_2_4_3 + 118.400000000000 B_2_4_4 + 62 B_3_0_0
      + 62 B_3_0_1 + 62 B_3_0_2 + 62 B_3_0_3 + 62 B_3_0_4
      + 121.500000000000 B_3_1_0 + 121.500000000000 B_3_1_1
      + 121.500000000000 B_3_1_2 + 121.500000000000 B_3_1_3
      + 121.500000000000 B_3_1_4 + 113.100000000000 B_3_2_0
      + 113.100000000000 B_3_2_1 + 113.100000000000 B_3_2_2
      + 113.100000000000 B_3_2_3 + 113.100000000000 B_3_2_4
      + 148.500000000000 B_3_3_0 + 148.500000000000 B_3_3_1
      + 148.500000000000 B_3_3_2 + 148.500000000000 B_3_3_3
      + 148.500000000000 B_3_3_4 + 118.400000000000 B_3_4_0
      + 118.400000000000 B_3_4_1 + 118.400000000000 B_3_4_2
      + 118.400000000000 B_3_4_3 + 118.400000000000 B_3_4_4 + 62 B_4_0_0
      + 62 B_4_0_1 + 62 B_4_0_2 + 62 B_4_0_3 + 62 B_4_0_4
      + 121.500000000000 B_4_1_0 + 121.500000000000 B_4_1_1
      + 121.500000000000 B_4_1_2 + 121.500000000000 B_4_1_3
      + 121.500000000000 B_4_1_4 + 113.100000000000 B_4_2_0
      + 113.100000000000 B_4_2_1 + 113.100000000000 B_4_2_2
      + 113.100000000000 B_4_2_3 + 113.100000000000 B_4_2_4
      + 148.500000000000 B_4_3_0 + 148.500000000000 B_4_3_1
      + 148.500000000000 B_4_3_2 + 148.500000000000 B_4_3_3
      + 148.500000000000 B_4_3_4 + 118.400000000000 B_4_4_0
      + 118.400000000000 B_4_4_1 + 118.400000000000 B_4_4_2
      + 118.400000000000 B_4_4_3 + 118.400000000000 B_4_4_4 +
      103480.158700000000
Subject To
 c1: - B_0_0_0 + B_0_0_1 >= -14.586000000000
 c2: B_0_0_1 - B_0_0_2 <= 0.867000000000
 c3: B_0_0_2 - B_0_0_3 <= 1.170000000000
 c4: B_0_0_3 - B_0_0_4 <= 1.834000000000
 c5: - B_0_1_0 + B_0_1_1 >= -20.336000000000
 c6: B_0_1_1 - B_0_1_2 <= 3.320000000000
 c7: B_0_1_2 - B_0_1_3 <= 0.620000000000
 c8: B_0_1_3 - B_0_1_4 <= 1.533000000000
 c9: - B_0_2_0 + B_0_2_1 >= -1.276000000000
 c10: - B_0_2_1 + B_0_2_2 >= -6.242000000000
 c11: B_0_2_2 - B_0_2_3 <= 1.008000000000
 c12: B_0_2_3 - B_0_2_4 <= 1.243000000000
 c13: - B_0_3_0 + B_0_3_1 >= -25.534000000000
 c14: B_0_3_1 - B_0_3_2 <= 0.020000000000
 c15: B_0_3_2 - B_0_3_3 <= 2.599000000000
 c16: B_0_3_3 - B_0_3_4 <= 1.925000000000
 c17: - B_0_4_0 + B_0_4_1 >= -19.828000000000
 c18: B_0_4_1 - B_0_4_2 <= 3.078000000000
 c19: B_0_4_2 - B_0_4_3 <= 2.254000000000
 c20: B_0_4_3 - B_0_4_4 <= 1.494000000000
 c21: - B_1_0_1 + B_1_0_2 >= -42.553000000000
 c22: B_1_0_2 - B_1_0_3 <= 3.528000000000
 c23: B_1_0_3 - B_1_0_4 <= 2.394000000000
 c24: - B_1_1_1 + B_1_1_2 >= -31.702000000000
 c25: B_1_1_2 - B_1_1_3 <= 0.175000000000
 c26: B_1_1_3 - B_1_1_4 <= 2.354000000000
 c27: - B_1_2_1 + B_1_2_2 >= -17.304000000000
 c28: - B_1_2_2 + B_1_2_3 >= -17.038000000000
 c29: B_1_2_3 - B_1_2_4 <= 0.615000000000
 c30: - B_1_3_1 + B_1_3_2 >= -31.077000000000
 c31: B_1_3_2 - B_1_3_3 <= 1.606000000000
 c32: B_1_3_3 - B_1_3_4 <= 1.122000000000
 c33: - B_1_4_1 + B_1_4_2 >= -19.858000000000
 c34: B_1_4_2 - B_1_4_3 <= 3.152000000000
 c35: B_1_4_3 - B_1_4_4 <= 2.261000000000
 c36: - B_2_0_0 + B_2_0_1 >= -25.785000000000
 c37: B_2_0_1 - B_2_0_2 <= 2.196000000000
 c38: B_2_0_2 - B_2_0_3 <= 1.488000000000
 c39: B_2_0_3 - B_2_0_4 <= 2.058000000000
 c40: - B_2_1_0 + B_2_1_1 >= -26.771000000000
 c41: B_2_1_1 - B_2_1_2 <= 0.375000000000
 c42: B_2_1_2 - B_2_1_3 <= 0.432000000000
 c43: B_2_1_3 - B_2_1_4 <= 1.160000000000
 c44: B_2_2_0 - B_2_2_1 <= 2.144000000000
 c45: - B_2_2_1 + B_2_2_2 >= -8.004000000000
 c46: B_2_2_2 - B_2_2_3 <= 1.302000000000
 c47: B_2_2_3 - B_2_2_4 <= 0.336000000000
 c48: - B_2_3_0 + B_2_3_1 >= -13.695000000000
 c49: B_2_3_1 - B_2_3_2 <= 1.650000000000
 c50: B_2_3_2 - B_2_3_3 <= 1.464000000000
 c51: B_2_3_3 - B_2_3_4 <= 0.077000000000
 c52: - B_2_4_0 + B_2_4_1 >= -13.994000000000
 c53: B_2_4_1 - B_2_4_2 <= 0.504000000000
 c54: B_2_4_2 - B_2_4_3 <= 1.170000000000
 c55: B_2_4_3 - B_2_4_4 <= 0.120000000000
 c56: - B_3_0_0 + B_3_0_1 >= -21.028000000000
 c57: B_3_0_1 - B_3_0_2 <= 0.864000000000
 c58: B_3_0_2 - B_3_0_3 <= 0.435000000000
 c59: B_3_0_3 - B_3_0_4 <= 2.337000000000
 c60: - B_3_1_0 + B_3_1_1 >= -5.516000000000
 c61: B_3_1_1 - B_3_1_2 <= 2.552000000000
 c62: B_3_1_2 - B_3_1_3 <= 3.276000000000
 c63: B_3_1_3 - B_3_1_4 <= 1.208000000000
 c64: - B_3_2_0 + B_3_2_1 >= 6.176000000000
 c65: - B_3_2_1 + B_3_2_2 >= -13.046000000000
 c66: B_3_2_2 - B_3_2_3 <= 1.400000000000
 c67: B_3_2_3 - B_3_2_4 <= 2.013000000000
 c68: - B_3_3_0 + B_3_3_1 >= -8.519000000000
 c69: B_3_3_1 - B_3_3_2 <= 3.008000000000
 c70: B_3_3_2 - B_3_3_3 <= 1.680000000000
 c71: B_3_3_3 - B_3_3_4 <= 1.116000000000
 c72: - B_3_4_0 + B_3_4_1 >= -16.962000000000
 c73: B_3_4_1 - B_3_4_2 <= 2.040000000000
 c74: B_3_4_2 - B_3_4_3 <= 1.312000000000
 c75: B_3_4_3 - B_3_4_4 <= 4.600000000000
 c76: - B_4_0_1 + B_4_0_2 >= -24.894000000000
 c77: B_4_0_2 - B_4_0_3 <= 2.610000000000
 c78: B_4_0_3 - B_4_0_4 <= 1.125000000000
 c79: - B_4_1_1 + B_4_1_2 >= -50.468000000000
 c80: B_4_1_2 - B_4_1_3 <= 0.828000000000
 c81: B_4_1_3 - B_4_1_4 <= 1.965000000000
 c82: - B_4_2_1 + B_4_2_2 >= -22.421000000000
 c83: - B_4_2_2 + B_4_2_3 >= -20.618000000000
 c84: B_4_2_3 - B_4_2_4 <= 0.940000000000
 c85: - B_4_3_1 + B_4_3_2 >= -30.036000000000
 c86: B_4_3_2 - B_4_3_3 <= 0.575000000000
 c87: B_4_3_3 - B_4_3_4 <= 4.464000000000
 c88: - B_4_4_1 + B_4_4_2 >= -17.134000000000
 c89: B_4_4_2 - B_4_4_3 <= 1.404000000000
 c90: B_4_4_3 - B_4_4_4 <= 0.140000000000
 c91: B_1_0_0 - B_1_0_1 <= -25.410000000000
 c92: B_1_1_0 - B_1_1_1 <= -13.104000000000
 c93: B_1_2_0 - B_1_2_1 <= -18.702000000000
 c94: B_1_3_0 - B_1_3_1 <= -12.720000000000
 c95: B_1_4_0 - B_1_4_1 <= -9.630000000000
 c96: B_4_0_0 - B_4_0_1 <= -13.164000000000
 c97: B_4_1_0 - B_4_1_1 <= -27.416000000000
 c98: B_4_2_0 - B_4_2_1 <= -14.292000000000
 c99: B_4_3_0 - B_4_3_1 <= -6.438000000000
 c100: B_4_4_0 - B_4_4_1 <= -7.182000000000
 c101: - B_0_0_0 <= -11.610000000000
 c102: - B_0_1_0 <= -19.136000000000
 c103: - B_0_2_0 <= -6.414000000000
 c104: - B_0_3_0 <= -23.759000000000
 c105: - B_0_4_0 <= -17.008000000000
 c106: - B_1_0_0 <= -15.988000000000
 c107: - B_1_1_0 <= -16.744000000000
 c108: - B_1_2_0 <= -13.104000000000
 c109: - B_1_3_0 <= -15.405000000000
 c110: - B_1_4_0 <= -8.112000000000
 c111: - B_2_0_0 <= -25.050000000000
 c112: - B_2_1_0 <= -26.151000000000
 c113: - B_2_2_0 <= -7.756000000000
 c114: - B_2_3_0 <= -12.192000000000
 c115: - B_2_4_0 <= -13.949000000000
 c116: - B_3_0_0 <= -20.980000000000
 c117: - B_3_1_0 <= -5.390000000000
 c118: - B_3_2_0 <= -5.440000000000
 c119: - B_3_3_0 <= -7.210000000000
 c120: - B_3_4_0 <= -14.274000000000
 c121: - B_4_0_0 <= -10.386000000000
 c122: - B_4_1_0 <= -22.428000000000
 c123: - B_4_2_0 <= -25.762000000000
 c124: - B_4_3_0 <= -20.162000000000
 c125: - B_4_4_0 <= -6.966000000000
 c126: B_0_0_4 + B_0_1_4 + B_0_2_4 + B_0_3_4 + B_0_4_4 + B_1_0_4 + B_1_1_4
       + B_1_2_4 + B_1_3_4 + B_1_4_4 + B_2_0_4 + B_2_1_4 + B_2_2_4 + B_2_3_4
       + B_2_4_4 + B_3_0_4 + B_3_1_4 + B_3_2_4 + B_3_3_4 + B_3_4_4 + B_4_0_4
       + B_4_1_4 + B_4_2_4 + B_4_3_4 + B_4_4_4 = 0

Bounds
 0 <= Z_P_0_0_0 <= 1
 0 <= Z_P_0_0_1 <= 1
 0 <= Z_P_0_0_2 <= 1
 0 <= Z_P_0_0_3 <= 1
 0 <= Z_P_0_0_4 <= 1
 0 <= Z_P_0_1_0 <= 1
 0 <= Z_P_0_1_1 <= 1
 0 <= Z_P_0_1_2 <= 1
 0 <= Z_P_0_1_3 <= 1
 0 <= Z_P_0_1_4 <= 1
 0 <= Z_P_0_2_0 <= 1
 0 <= Z_P_0_2_1 <= 1
 0 <= Z_P_0_2_2 <= 1
 0 <= Z_P_0_2_3 <= 1
 0 <= Z_P_0_2_4 <= 1
 0 <= Z_P_1_0_0 <= 1
 0 <= Z_P_1_0_1 <= 1
 0 <= Z_P_1_0_2 <= 1
 0 <= Z_P_1_0_3 <= 1
 0 <= Z_P_1_0_4 <= 1
 0 <= Z_P_1_1_0 <= 1
 0 <= Z_P_1_1_1 <= 1
 0 <= Z_P_1_1_2 <= 1
 0 <= Z_P_1_1_3 <= 1
 0 <= Z_P_1_1_4 <= 1
 0 <= Z_P_1_2_0 <= 1
 0 <= Z_P_1_2_1 <= 1
 0 <= Z_P_1_2_2 <= 1
 0 <= Z_P_1_2_3 <= 1
 0 <= Z_P_1_2_4 <= 1

Binaries
 Z_P_0_0_0 Z_P_0_0_1 Z_P_0_0_2 Z_P_0_0_3 Z_P_0_0_4 Z_P_0_1_0 Z_P_0_1_1 Z_P_0_1_2
 Z_P_0_1_3 Z_P_0_1_4 Z_P_0_2_0 Z_P_0_2_1 Z_P_0_2_2 Z_P_0_2_3 Z_P_0_2_4 Z_P_1_0_0
 Z_P_1_0_1 Z_P_1_0_2 Z_P_1_0_3 Z_P_1_0_4 Z_P_1_1_0 Z_P_1_1_1 Z_P_1_1_2 Z_P_1_1_3
 Z_P_1_1_4 Z_P_1_2_0 Z_P_1_2_1 Z_P_1_2_2 Z_P_1_2_3 Z_P_1_2_4
End
